<number of tasks>
50

<cycle time>
1000

<order strength>
0.598


<task times>
1 388
2 491
3 629
4 341
5 520
6 587
7 602
8 569
9 526
10 533
11 475
12 511
13 519
14 469
15 381
16 441
17 499
18 560
19 576
20 548
21 669
22 399
23 364
24 257
25 734
26 569
27 332
28 326
29 480
30 539
31 527
32 487
33 367
34 512
35 739
36 669
37 561
38 568
39 557
40 440
41 388
42 257
43 705
44 686
45 502
46 427
47 555
48 610
49 559
50 506

<precedence relations>
1,33
2,16
3,16
4,5
4,6
4,7
5,33
6,16
7,8
7,9
7,10
8,42
9,16
10,11
10,12
10,13
11,16
12,14
12,15
12,18
12,27
12,31
13,15
13,17
13,27
13,32
14,33
15,42
16,19
16,20
16,21
16,22
16,23
16,24
16,25
17,19
17,31
18,26
19,33
20,27
20,28
20,30
21,30
21,31
22,30
22,32
22,35
23,27
23,29
23,31
23,36
25,27
25,29
25,30
25,32
25,35
26,28
26,30
26,36
27,33
28,33
29,42
30,33
30,34
31,34
31,35
32,34
32,36
33,37
33,38
33,39
33,40
33,41
33,42
33,43
34,42
35,42
35,43
36,42
36,43
37,49
37,50
42,44
42,45
42,46
42,47
46,49
46,50
47,48

<end>
